Academic license - for non-commercial use only - expires 2022-11-10
Using license file /home/benedond/Apps/gurobi/gurobi950/gurobi.lic
Using gurobi.env file
Set parameter Threads to value 1
Changed value of parameter TimeLimit to 1200.0
   Prev: inf  Min: 0.0  Max: inf  Default: inf
Gurobi Optimizer version 9.1.2 build v9.1.2rc0 (linux64)
Thread count: 2 physical cores, 4 logical processors, using up to 1 threads
Optimize a model with 1397 rows, 1276 columns and 6100 nonzeros
Model fingerprint: 0x96627890
Variable types: 48 continuous, 1228 integer (1228 binary)
Coefficient statistics:
  Matrix range     [2e-01, 3e+02]
  Objective range  [1e-02, 3e-01]
  Bounds range     [1e+00, 1e+00]
  RHS range        [1e+00, 1e+03]
Presolve removed 284 rows and 69 columns
Presolve time: 0.04s
Presolved: 1113 rows, 1207 columns, 5581 nonzeros
Variable types: 47 continuous, 1160 integer (1160 binary)
Found heuristic solution: objective 4.0837723

Root relaxation: objective 1.761729e+00, 1281 iterations, 0.03 seconds

    Nodes    |    Current Node    |     Objective Bounds      |     Work
 Expl Unexpl |  Obj  Depth IntInf | Incumbent    BestBd   Gap | It/Node Time

     0     0    1.76173    0  122    4.08377    1.76173  56.9%     -    0s
H    0     0                       3.5040099    1.76173  49.7%     -    0s
H    0     0                       3.2290198    1.76173  45.4%     -    0s
H    0     0                       3.1857030    1.76173  44.7%     -    0s
     0     0    1.88895    0  106    3.18570    1.88895  40.7%     -    0s
H    0     0                       2.8978218    1.88895  34.8%     -    0s
H    0     0                       2.7198317    1.88895  30.5%     -    0s
     0     0    1.89060    0  103    2.71983    1.89060  30.5%     -    0s
     0     0    2.02223    0   81    2.71983    2.02223  25.6%     -    0s
H    0     0                       2.7178119    2.02223  25.6%     -    0s
     0     0    2.03200    0  101    2.71781    2.03200  25.2%     -    0s
     0     0    2.03467    0   88    2.71781    2.03467  25.1%     -    0s
     0     0    2.03476    0   84    2.71781    2.03476  25.1%     -    0s
     0     0    2.12049    0  134    2.71781    2.12049  22.0%     -    0s
     0     0    2.16338    0  130    2.71781    2.16338  20.4%     -    0s
     0     0    2.19378    0   74    2.71781    2.19378  19.3%     -    0s
     0     0    2.19960    0   93    2.71781    2.19960  19.1%     -    0s
     0     0    2.20209    0  104    2.71781    2.20209  19.0%     -    0s
     0     0    2.20334    0  100    2.71781    2.20334  18.9%     -    0s
     0     0    2.20338    0  104    2.71781    2.20338  18.9%     -    0s
     0     0    2.24527    0   99    2.71781    2.24527  17.4%     -    0s
     0     0    2.26401    0  121    2.71781    2.26401  16.7%     -    0s
     0     0    2.26767    0  123    2.71781    2.26767  16.6%     -    0s
     0     0    2.27034    0  128    2.71781    2.27034  16.5%     -    0s
     0     0    2.27056    0  145    2.71781    2.27056  16.5%     -    0s
     0     0    2.28007    0  121    2.71781    2.28007  16.1%     -    0s
     0     0    2.28211    0   96    2.71781    2.28211  16.0%     -    0s
     0     0    2.28268    0  120    2.71781    2.28268  16.0%     -    0s
     0     0    2.28271    0  119    2.71781    2.28271  16.0%     -    0s
     0     0    2.29246    0   97    2.71781    2.29246  15.7%     -    0s
     0     0    2.29443    0  124    2.71781    2.29443  15.6%     -    0s
     0     0    2.29616    0  116    2.71781    2.29616  15.5%     -    0s
     0     0    2.29624    0  123    2.71781    2.29624  15.5%     -    0s
     0     0    2.30301    0  109    2.71781    2.30301  15.3%     -    0s
     0     0    2.30587    0  148    2.71781    2.30587  15.2%     -    0s
     0     0    2.30729    0  148    2.71781    2.30729  15.1%     -    0s
     0     0    2.30758    0  132    2.71781    2.30758  15.1%     -    0s
     0     0    2.31603    0  117    2.71781    2.31603  14.8%     -    0s
     0     0    2.31746    0  151    2.71781    2.31746  14.7%     -    0s
     0     0    2.31796    0  148    2.71781    2.31796  14.7%     -    0s
     0     0    2.31808    0  147    2.71781    2.31808  14.7%     -    0s
     0     0    2.32671    0  141    2.71781    2.32671  14.4%     -    0s
     0     0    2.33016    0  156    2.71781    2.33016  14.3%     -    0s
     0     0    2.33048    0  143    2.71781    2.33048  14.3%     -    0s
     0     0    2.33488    0  118    2.71781    2.33488  14.1%     -    0s
     0     0    2.33663    0  146    2.71781    2.33663  14.0%     -    0s
     0     0    2.33691    0  124    2.71781    2.33691  14.0%     -    0s
     0     0    2.33808    0  146    2.71781    2.33808  14.0%     -    0s
     0     0    2.33808    0  144    2.71781    2.33808  14.0%     -    0s
     0     2    2.33828    0  143    2.71781    2.33828  14.0%     -    1s
H   52    50                       2.6294357    2.34144  11.0%   178    1s
H   78    68                       2.5902871    2.34903  9.31%   162    2s
H  341   148                       2.5191980    2.36509  6.12%  90.8    3s
   513   260    2.47093   17   80    2.51920    2.37306  5.80%  84.3    5s
   733   283    2.39945   28   69    2.51920    2.39857  4.79%  93.3   10s
  1896   508    2.49758   36  100    2.51920    2.43416  3.38%  65.6   15s
  3028   703    2.47990   20   99    2.51920    2.45988  2.35%  62.0   20s
H 3690   640                       2.5031584    2.46901  1.36%  60.6   22s
H 3693   551                       2.4977525    2.46901  1.15%  60.6   22s

Cutting planes:
  Gomory: 4
  Cover: 51
  Implied bound: 7
  Clique: 8
  MIR: 125
  StrongCG: 4
  Flow cover: 217
  GUB cover: 1
  Inf proof: 1
  Mod-K: 5
  RLT: 8
  Relax-and-lift: 156

Explored 4593 nodes (267759 simplex iterations) in 24.88 seconds
Thread count was 1 (of 4 available processors)

Solution count 10: 2.49775 2.50316 2.5192 ... 3.22902

Optimal solution found (tolerance 1.00e-04)
Best objective 2.497752474735e+00, best bound 2.497565315438e+00, gap 0.0075%
